15
1 0 6
2 1 3
3 1 3
4 3 7
5 1 8
5 2 4
5 3 4
5 4 5
6 2 1
7 1 2
7 2 2
7 3 3
7 4 1
7 6 7
8 0 3
8 2 4
8 3 2
8 6 1
8 7 5
9 0 1
9 2 2
9 3 5
9 4 6
9 7 1
10 1 7
10 3 4
10 4 7
10 5 2
10 7 3
10 8 1
11 2 5
11 9 2
12 0 8
12 4 2
12 11 3
13 1 8
13 3 2
13 4 7
13 6 2
13 7 3
13 9 2
13 12 3
14 2 1
14 4 4
14 8 2
14 11 6
14 12 8
